(declare-const |havoc:2| Int)
(declare-const |phi_tmp___1:24:26:29| Int)
(declare-const havoc Int)
(declare-const |havoc:5:14:18:21| Int)
(declare-const |phi_x:19:22| Int)
(declare-const |phi_tmp___1:27:30| Int)
(declare-const |phi_x:15:17:20| Int)
(declare-const |phi_tmp___1:16:23:25:28| Int)
(assert (and (<= (+ |havoc:2| -1000000) 0)
               (or (and (< (- |havoc:2|) 0)
                          (or (and (<= (+ (- havoc) 100) 0)
                                     (= (+ (- |phi_x:15:17:20|) havoc) 0))
                                (and (< (+ havoc -100) 0)
                                       (= (+ |havoc:5:14:18:21|
                                               (- |phi_x:15:17:20|)) 0)))
                          (<= (+ (- |phi_x:15:17:20|) 100) 0)
                          (= (+ (- |phi_x:19:22|) |phi_x:15:17:20|) 0))
                     (and (<= |havoc:2| 0) (= (+ (- |phi_x:19:22|) havoc) 0)))
               (or (and (< (- |havoc:2|) 0)
                          (or (and (< (- |havoc:2|) 0)
                                     (or (and (< (+ |phi_x:19:22| -100) 0)
                                                (= (- |phi_tmp___1:16:23:25:28|) 0))
                                           (and (<= (+ (- |phi_x:19:22|) 100) 0)
                                                  (= (+ (- |phi_tmp___1:16:23:25:28|)
                                                          1) 0)))
                                     (= (+ (- |phi_tmp___1:24:26:29|)
                                             |phi_tmp___1:16:23:25:28|) 0))
                                (and (<= |havoc:2| 0)
                                       (= (- |phi_tmp___1:24:26:29|) 0)))
                          (= (+ (- |phi_tmp___1:27:30|)
                                  |phi_tmp___1:24:26:29|) 0))
                     (and (<= |havoc:2| 0)
                            (= (+ (- |phi_tmp___1:27:30|) 1) 0)))
               (= |phi_tmp___1:27:30| 0)))
(check-sat)
